n_trains = 20;
n_tracks = 5;
tracks = [{1, 2},{3, 4, 5},{6, 7, 8, 9, 10},{11, 12, 13, 14, 15},{16, 17, 18, 19, 20}];
arrival_order = [12, 4, 2, 9, 17, 14, 19, 18, 8, 5, 1, 13, 11, 20, 7, 3, 15, 16, 6, 10];
departure_order = [20, 19, 18, 17, 16, 15, 14, 13, 12, 11, 10, 9, 8, 7, 6, 5, 4, 3, 2, 1];
